units        real
atom_style    atomic
dimension 2
atom_modify map yes
region        box block -1000 1000 -1000 1000 -0.1 0.1
create_box    1 box
create_atoms    1 single 15.64 -13.34 0.0
mass        1 40
velocity    all set -0.0007179146358348056 -0.0025664728662168155 0 sum yes
pair_style      none
fix        pl all plumed plumedfile plumed.dat outfile log
fix        1 all nve
fix        2  all langevin 300 300 100.0 2000
variable fx atom 0.59616*(-4*((x/10)^3)+8*x/10-2*y/10-0.1)/10
variable fy atom 0.59616*(-4*((y/10)^3)+4*y/10-2*x/10-0.8)/10
fix harm all addforce v_fx v_fy 0.0
fix        3 all enforce2d
run 50000000
